*SENSE:Minimize
NAME          MODEL
ROWS
 N  OBJ
 E  C0000000
 E  C0000001
 E  C0000002
 E  C0000003
 E  C0000004
 E  C0000005
 E  C0000006
 E  C0000007
 E  C0000008
 E  C0000009
 L  C0000010
 L  C0000011
 L  C0000012
 L  C0000013
 L  C0000014
 L  C0000015
 L  C0000016
 L  C0000017
 L  C0000018
 L  C0000019
 L  C0000020
 L  C0000021
 L  C0000022
 L  C0000023
 L  C0000024
 L  C0000025
 L  C0000026
 L  C0000027
 L  C0000028
 L  C0000029
 L  C0000030
 L  C0000031
 L  C0000032
 L  C0000033
 L  C0000034
 L  C0000035
 L  C0000036
 L  C0000037
 L  C0000038
 L  C0000039
 L  C0000040
 L  C0000041
 L  C0000042
COLUMNS
    MARK      'MARKER'                 'INTORG'
    X0000000  C0000000   1.000000000000e+00
    X0000000  C0000010   1.000000000000e+00
    X0000000  C0000013   1.000000000000e+00
    X0000000  C0000016   1.000000000000e+00
    MARK      'MARKER'                 'INTEND'
    MARK      'MARKER'                 'INTORG'
    X0000001  C0000000   1.000000000000e+00
    X0000001  C0000011   1.000000000000e+00
    X0000001  C0000014   1.000000000000e+00
    X0000001  C0000017   1.000000000000e+00
    MARK      'MARKER'                 'INTEND'
    MARK      'MARKER'                 'INTORG'
    X0000002  C0000000   1.000000000000e+00
    X0000002  C0000012   1.000000000000e+00
    X0000002  C0000015   1.000000000000e+00
    X0000002  C0000018   1.000000000000e+00
    MARK      'MARKER'                 'INTEND'
    MARK      'MARKER'                 'INTORG'
    X0000003  C0000001   1.000000000000e+00
    X0000003  C0000010   1.000000000000e+00
    X0000003  C0000019   1.000000000000e+00
    X0000003  C0000022   1.000000000000e+00
    X0000003  C0000025   1.000000000000e+00
    MARK      'MARKER'                 'INTEND'
    MARK      'MARKER'                 'INTORG'
    X0000004  C0000001   1.000000000000e+00
    X0000004  C0000011   1.000000000000e+00
    X0000004  C0000020   1.000000000000e+00
    X0000004  C0000023   1.000000000000e+00
    X0000004  C0000026   1.000000000000e+00
    MARK      'MARKER'                 'INTEND'
    MARK      'MARKER'                 'INTORG'
    X0000005  C0000001   1.000000000000e+00
    X0000005  C0000012   1.000000000000e+00
    X0000005  C0000021   1.000000000000e+00
    X0000005  C0000024   1.000000000000e+00
    X0000005  C0000027   1.000000000000e+00
    MARK      'MARKER'                 'INTEND'
    MARK      'MARKER'                 'INTORG'
    X0000006  C0000002   1.000000000000e+00
    X0000006  C0000028   1.000000000000e+00
    X0000006  C0000031   1.000000000000e+00
    MARK      'MARKER'                 'INTEND'
    MARK      'MARKER'                 'INTORG'
    X0000007  C0000002   1.000000000000e+00
    X0000007  C0000029   1.000000000000e+00
    X0000007  C0000032   1.000000000000e+00
    MARK      'MARKER'                 'INTEND'
    MARK      'MARKER'                 'INTORG'
    X0000008  C0000002   1.000000000000e+00
    X0000008  C0000030   1.000000000000e+00
    X0000008  C0000033   1.000000000000e+00
    MARK      'MARKER'                 'INTEND'
    MARK      'MARKER'                 'INTORG'
    X0000009  C0000003   1.000000000000e+00
    X0000009  C0000034   1.000000000000e+00
    MARK      'MARKER'                 'INTEND'
    MARK      'MARKER'                 'INTORG'
    X0000010  C0000003   1.000000000000e+00
    X0000010  C0000035   1.000000000000e+00
    MARK      'MARKER'                 'INTEND'
    MARK      'MARKER'                 'INTORG'
    X0000011  C0000003   1.000000000000e+00
    X0000011  C0000036   1.000000000000e+00
    MARK      'MARKER'                 'INTEND'
    MARK      'MARKER'                 'INTORG'
    X0000012  C0000004   1.000000000000e+00
    X0000012  C0000037   1.000000000000e+00
    MARK      'MARKER'                 'INTEND'
    MARK      'MARKER'                 'INTORG'
    X0000013  C0000004   1.000000000000e+00
    X0000013  C0000038   1.000000000000e+00
    MARK      'MARKER'                 'INTEND'
    MARK      'MARKER'                 'INTORG'
    X0000014  C0000004   1.000000000000e+00
    X0000014  C0000039   1.000000000000e+00
    MARK      'MARKER'                 'INTEND'
    MARK      'MARKER'                 'INTORG'
    X0000015  C0000005   1.000000000000e+00
    X0000015  C0000028   1.000000000000e+00
    X0000015  C0000034   1.000000000000e+00
    X0000015  C0000037   1.000000000000e+00
    MARK      'MARKER'                 'INTEND'
    MARK      'MARKER'                 'INTORG'
    X0000016  C0000005   1.000000000000e+00
    X0000016  C0000029   1.000000000000e+00
    X0000016  C0000035   1.000000000000e+00
    X0000016  C0000038   1.000000000000e+00
    MARK      'MARKER'                 'INTEND'
    MARK      'MARKER'                 'INTORG'
    X0000017  C0000005   1.000000000000e+00
    X0000017  C0000030   1.000000000000e+00
    X0000017  C0000036   1.000000000000e+00
    X0000017  C0000039   1.000000000000e+00
    MARK      'MARKER'                 'INTEND'
    MARK      'MARKER'                 'INTORG'
    X0000018  C0000006   1.000000000000e+00
    X0000018  C0000019   1.000000000000e+00
    X0000018  C0000040   1.000000000000e+00
    MARK      'MARKER'                 'INTEND'
    MARK      'MARKER'                 'INTORG'
    X0000019  C0000006   1.000000000000e+00
    X0000019  C0000020   1.000000000000e+00
    X0000019  C0000041   1.000000000000e+00
    MARK      'MARKER'                 'INTEND'
    MARK      'MARKER'                 'INTORG'
    X0000020  C0000006   1.000000000000e+00
    X0000020  C0000021   1.000000000000e+00
    X0000020  C0000042   1.000000000000e+00
    MARK      'MARKER'                 'INTEND'
    MARK      'MARKER'                 'INTORG'
    X0000021  C0000007   1.000000000000e+00
    X0000021  C0000022   1.000000000000e+00
    X0000021  C0000040   1.000000000000e+00
    MARK      'MARKER'                 'INTEND'
    MARK      'MARKER'                 'INTORG'
    X0000022  C0000007   1.000000000000e+00
    X0000022  C0000023   1.000000000000e+00
    X0000022  C0000041   1.000000000000e+00
    MARK      'MARKER'                 'INTEND'
    MARK      'MARKER'                 'INTORG'
    X0000023  C0000007   1.000000000000e+00
    X0000023  C0000024   1.000000000000e+00
    X0000023  C0000042   1.000000000000e+00
    MARK      'MARKER'                 'INTEND'
    MARK      'MARKER'                 'INTORG'
    X0000024  C0000008   1.000000000000e+00
    X0000024  C0000013   1.000000000000e+00
    X0000024  C0000031   1.000000000000e+00
    MARK      'MARKER'                 'INTEND'
    MARK      'MARKER'                 'INTORG'
    X0000025  C0000008   1.000000000000e+00
    X0000025  C0000014   1.000000000000e+00
    X0000025  C0000032   1.000000000000e+00
    MARK      'MARKER'                 'INTEND'
    MARK      'MARKER'                 'INTORG'
    X0000026  C0000008   1.000000000000e+00
    X0000026  C0000015   1.000000000000e+00
    X0000026  C0000033   1.000000000000e+00
    MARK      'MARKER'                 'INTEND'
    MARK      'MARKER'                 'INTORG'
    X0000027  C0000009   1.000000000000e+00
    X0000027  C0000016   1.000000000000e+00
    X0000027  C0000025   1.000000000000e+00
    MARK      'MARKER'                 'INTEND'
    MARK      'MARKER'                 'INTORG'
    X0000028  C0000009   1.000000000000e+00
    X0000028  C0000017   1.000000000000e+00
    X0000028  C0000026   1.000000000000e+00
    MARK      'MARKER'                 'INTEND'
    MARK      'MARKER'                 'INTORG'
    X0000029  C0000009   1.000000000000e+00
    X0000029  C0000018   1.000000000000e+00
    X0000029  C0000027   1.000000000000e+00
    MARK      'MARKER'                 'INTEND'
    MARK      'MARKER'                 'INTORG'
    X0000030  C0000010  -1.000000000000e+00
    X0000030  C0000011  -1.000000000000e+00
    X0000030  C0000012  -1.000000000000e+00
    X0000030  OBJ        1.000000000000e+00
    MARK      'MARKER'                 'INTEND'
    MARK      'MARKER'                 'INTORG'
    X0000031  C0000013  -1.000000000000e+00
    X0000031  C0000014  -1.000000000000e+00
    X0000031  C0000015  -1.000000000000e+00
    X0000031  OBJ        1.000000000000e+00
    MARK      'MARKER'                 'INTEND'
    MARK      'MARKER'                 'INTORG'
    X0000032  C0000016  -1.000000000000e+00
    X0000032  C0000017  -1.000000000000e+00
    X0000032  C0000018  -1.000000000000e+00
    X0000032  OBJ        1.000000000000e+00
    MARK      'MARKER'                 'INTEND'
    MARK      'MARKER'                 'INTORG'
    X0000033  C0000019  -1.000000000000e+00
    X0000033  C0000020  -1.000000000000e+00
    X0000033  C0000021  -1.000000000000e+00
    X0000033  OBJ        1.000000000000e+00
    MARK      'MARKER'                 'INTEND'
    MARK      'MARKER'                 'INTORG'
    X0000034  C0000022  -1.000000000000e+00
    X0000034  C0000023  -1.000000000000e+00
    X0000034  C0000024  -1.000000000000e+00
    X0000034  OBJ        1.000000000000e+00
    MARK      'MARKER'                 'INTEND'
    MARK      'MARKER'                 'INTORG'
    X0000035  C0000025  -1.000000000000e+00
    X0000035  C0000026  -1.000000000000e+00
    X0000035  C0000027  -1.000000000000e+00
    X0000035  OBJ        1.000000000000e+00
    MARK      'MARKER'                 'INTEND'
    MARK      'MARKER'                 'INTORG'
    X0000036  C0000028  -1.000000000000e+00
    X0000036  C0000029  -1.000000000000e+00
    X0000036  C0000030  -1.000000000000e+00
    X0000036  OBJ        1.000000000000e+00
    MARK      'MARKER'                 'INTEND'
    MARK      'MARKER'                 'INTORG'
    X0000037  C0000031  -1.000000000000e+00
    X0000037  C0000032  -1.000000000000e+00
    X0000037  C0000033  -1.000000000000e+00
    X0000037  OBJ        1.000000000000e+00
    MARK      'MARKER'                 'INTEND'
    MARK      'MARKER'                 'INTORG'
    X0000038  C0000034  -1.000000000000e+00
    X0000038  C0000035  -1.000000000000e+00
    X0000038  C0000036  -1.000000000000e+00
    X0000038  OBJ        1.000000000000e+00
    MARK      'MARKER'                 'INTEND'
    MARK      'MARKER'                 'INTORG'
    X0000039  C0000037  -1.000000000000e+00
    X0000039  C0000038  -1.000000000000e+00
    X0000039  C0000039  -1.000000000000e+00
    X0000039  OBJ        1.000000000000e+00
    MARK      'MARKER'                 'INTEND'
    MARK      'MARKER'                 'INTORG'
    X0000040  C0000040  -1.000000000000e+00
    X0000040  C0000041  -1.000000000000e+00
    X0000040  C0000042  -1.000000000000e+00
    X0000040  OBJ        1.000000000000e+00
    MARK      'MARKER'                 'INTEND'
RHS
    RHS       C0000000   1.000000000000e+00
    RHS       C0000001   1.000000000000e+00
    RHS       C0000002   1.000000000000e+00
    RHS       C0000003   1.000000000000e+00
    RHS       C0000004   1.000000000000e+00
    RHS       C0000005   1.000000000000e+00
    RHS       C0000006   1.000000000000e+00
    RHS       C0000007   1.000000000000e+00
    RHS       C0000008   1.000000000000e+00
    RHS       C0000009   1.000000000000e+00
    RHS       C0000010   1.000000000000e+00
    RHS       C0000011   1.000000000000e+00
    RHS       C0000012   1.000000000000e+00
    RHS       C0000013   1.000000000000e+00
    RHS       C0000014   1.000000000000e+00
    RHS       C0000015   1.000000000000e+00
    RHS       C0000016   1.000000000000e+00
    RHS       C0000017   1.000000000000e+00
    RHS       C0000018   1.000000000000e+00
    RHS       C0000019   1.000000000000e+00
    RHS       C0000020   1.000000000000e+00
    RHS       C0000021   1.000000000000e+00
    RHS       C0000022   1.000000000000e+00
    RHS       C0000023   1.000000000000e+00
    RHS       C0000024   1.000000000000e+00
    RHS       C0000025   1.000000000000e+00
    RHS       C0000026   1.000000000000e+00
    RHS       C0000027   1.000000000000e+00
    RHS       C0000028   1.000000000000e+00
    RHS       C0000029   1.000000000000e+00
    RHS       C0000030   1.000000000000e+00
    RHS       C0000031   1.000000000000e+00
    RHS       C0000032   1.000000000000e+00
    RHS       C0000033   1.000000000000e+00
    RHS       C0000034   1.000000000000e+00
    RHS       C0000035   1.000000000000e+00
    RHS       C0000036   1.000000000000e+00
    RHS       C0000037   1.000000000000e+00
    RHS       C0000038   1.000000000000e+00
    RHS       C0000039   1.000000000000e+00
    RHS       C0000040   1.000000000000e+00
    RHS       C0000041   1.000000000000e+00
    RHS       C0000042   1.000000000000e+00
BOUNDS
 BV BND       X0000000
 BV BND       X0000001
 BV BND       X0000002
 BV BND       X0000003
 BV BND       X0000004
 BV BND       X0000005
 BV BND       X0000006
 BV BND       X0000007
 BV BND       X0000008
 BV BND       X0000009
 BV BND       X0000010
 BV BND       X0000011
 BV BND       X0000012
 BV BND       X0000013
 BV BND       X0000014
 BV BND       X0000015
 BV BND       X0000016
 BV BND       X0000017
 BV BND       X0000018
 BV BND       X0000019
 BV BND       X0000020
 BV BND       X0000021
 BV BND       X0000022
 BV BND       X0000023
 BV BND       X0000024
 BV BND       X0000025
 BV BND       X0000026
 BV BND       X0000027
 BV BND       X0000028
 BV BND       X0000029
 BV BND       X0000030
 BV BND       X0000031
 BV BND       X0000032
 BV BND       X0000033
 BV BND       X0000034
 BV BND       X0000035
 BV BND       X0000036
 BV BND       X0000037
 BV BND       X0000038
 BV BND       X0000039
 BV BND       X0000040
ENDATA
